\ This file was automatically generated by Zimpl
\ set subsidiaria := {1, 2, 3};
\ set projetos := {1 to 8};
\ set quantProjSub1 := {1, 2, 3};
\ set quantProjSub2 := {1, 2, 3};
\ set quantProjSub3 := {1, 2 };
\ param minInvestSub[subsidiaria] := <1> 3, <2> 5, <3> 8;
\ param projSub1[quantProjSub1] := <1> 1, <2> 2, <3> 3;
\ param projSub2[quantProjSub2] := <1> 3, <2> 4, <3> 5;
\ param projSub3[quantProjSub3] := <1> 6, <2> 7;
\ param maxInvestSub1PorProj[quantProjSub1] := <1> 6, <2> 5, <3> 9;
\ param maxInvestSub2PorProj[quantProjSub2] := <1> 7, <2> 10, <3> 4;
\ param maxInvestSub3PorProj[quantProjSub3] := <1> 6, <2> 3;
\ param retInvestSub1PorProj[quantProjSub1] := <1> 0.08, <2> 0.06, <3> 0.07;
\ param retInvestSub2PorProj[quantProjSub2] := <1> 0.05, <2> 0.08, <3> 0.09;
\ param retInvestSub3PorProj[quantProjSub3] := <1> 0.1, <2> 0.6;
\ param maxInvestSub2 := 17;
\ param totalInvest := 30;
\ var quantInvestPorProjSub1[quantProjSub1] >= 0;
\ var quantInvestPorProjSub2[quantProjSub2] >= 0;
\ var quantInvestPorProjSub3[quantProjSub3] >= 0;
\ maximize lucro :      (sum <p> in quantProjSub1 : quantInvestPorProjSub1[p] * retInvestSub1PorProj[p]) +     (sum <p> in quan
\ tProjSub2 : quantInvestPorProjSub2[p] * retInvestSub2PorProj[p]) +     (sum <p> in quantProjSub3 : quantInvestPorProjSub3[p] 
\ * retInvestSub3PorProj[p]);
\ subto limInvestTotal:     (sum <p> in quantProjSub1 : quantInvestPorProjSub1[p] ) +     (sum <p> in quantProjSub2 : quantInve
\ stPorProjSub2[p] ) +     (sum <p> in quantProjSub3 : quantInvestPorProjSub3[p] ) <= totalInvest;
\ subto minInvestSub1:      sum <p> in quantProjSub1 : quantInvestPorProjSub1[p] >= minInvestSub[1];
\ subto minInvestSub2:     sum <p> in quantProjSub2 : quantInvestPorProjSub2[p] >= minInvestSub[2];
\ subto minInvestSub3:     sum <p> in quantProjSub3 : quantInvestPorProjSub3[p] >= minInvestSub[3];
\ subto limInvestPorProjSub1:     forall <p> in quantProjSub1 : quantInvestPorProjSub1[p] <= maxInvestSub1PorProj[p];
\ subto limInvestPorProjSub2:     forall <p> in quantProjSub2 : quantInvestPorProjSub2[p] <= maxInvestSub2PorProj[p];
\ subto limInvestPorProjSub3:     forall <p> in quantProjSub3 : quantInvestPorProjSub3[p] <= maxInvestSub3PorProj[p];
\ subto limMaxInvestSub2:     sum <p> in quantProjSub2 : quantInvestPorProjSub2[p] <= maxInvestSub2;
\Problem name: file
Maximize
 lucro:  +0.08 quantInvestPor@0 +0.06 quantInvestPor@1 +0.07 quantInvestPor@2 +0.05 quantInvestPor@3 +0.08 quantInvestPor@4 +0.09 quantInvestPor@5
  +0.1 quantInvestPor@6 +0.6 quantInvestPor@7
Subject to
 limInvestTotal_1:
  + quantInvestPor@7 + quantInvestPor@6 + quantInvestPor@5 + quantInvestPor@4 + quantInvestPor@3 + quantInvestPor@2
  + quantInvestPor@1 + quantInvestPor@0 <= 30
 minInvestSub1_1:
  + quantInvestPor@2 + quantInvestPor@1 + quantInvestPor@0 >= 3
 minInvestSub2_1:
  + quantInvestPor@5 + quantInvestPor@4 + quantInvestPor@3 >= 5
 minInvestSub3_1:
  + quantInvestPor@7 + quantInvestPor@6 >= 8
 limInvestPorPr@4:
  + quantInvestPor@0 <= 6
 limInvestPorPr@5:
  + quantInvestPor@1 <= 5
 limInvestPorPr@6:
  + quantInvestPor@2 <= 9
 limInvestPorPr@7:
  + quantInvestPor@3 <= 7
 limInvestPorPr@8:
  + quantInvestPor@4 <= 10
 limInvestPorPr@9:
  + quantInvestPor@5 <= 4
 limInvestPorPr@a:
  + quantInvestPor@6 <= 6
 limInvestPorPr@b:
  + quantInvestPor@7 <= 3
 limMaxInvestSu@c:
  + quantInvestPor@5 + quantInvestPor@4 + quantInvestPor@3 <= 17
Bounds
 0 <= quantInvestPor@0 <= +inf
 0 <= quantInvestPor@1 <= +inf
 0 <= quantInvestPor@2 <= +inf
 0 <= quantInvestPor@3 <= +inf
 0 <= quantInvestPor@4 <= +inf
 0 <= quantInvestPor@5 <= +inf
 0 <= quantInvestPor@6 <= +inf
 0 <= quantInvestPor@7 <= +inf
End
